objective value:                                10647
t_x_1                                               1 	(obj:24)
t_x_2                                               1 	(obj:43)
t_x_4                                               1 	(obj:44)
t_x_6                                               1 	(obj:26)
t_x_8                                               1 	(obj:25)
t_x_9                                               1 	(obj:23)
t_x_13                                              1 	(obj:2)
t_x_24                                              1 	(obj:37)
t_x_26                                              1 	(obj:19)
t_x_31                                              1 	(obj:22)
t_x_33                                              1 	(obj:10)
t_x_37                                              1 	(obj:57)
t_x_38                                              1 	(obj:12)
t_x_45                                              1 	(obj:23)
t_x_52                                              1 	(obj:46)
t_x_59                                              1 	(obj:4)
t_x_65                                              1 	(obj:29)
t_x_67                                              1 	(obj:4)
t_x_68                                              1 	(obj:14)
t_x_69                                              1 	(obj:11)
t_x_70                                              1 	(obj:21)
t_x_72                                              1 	(obj:5)
t_x_73                                              1 	(obj:12)
t_x_74                                              1 	(obj:25)
t_x_75                                              1 	(obj:57)
t_x_77                                              1 	(obj:31)
t_x_84                                              1 	(obj:19)
t_x_92                                              1 	(obj:16)
t_x_95                                              1 	(obj:26)
t_x_100                                             1 	(obj:59)
t_x_104                                             1 	(obj:10)
t_x_106                                             1 	(obj:2)
t_x_114                                             1 	(obj:8)
t_x_120                                             1 	(obj:21)
t_x_122                                             1 	(obj:31)
t_x_125                                             1 	(obj:35)
t_x_127                                             1 	(obj:34)
t_x_134                                             1 	(obj:23)
t_x_136                                             1 	(obj:20)
t_x_142                                             1 	(obj:9)
t_x_144                                             1 	(obj:21)
t_x_146                                             1 	(obj:10)
t_x_150                                             1 	(obj:45)
t_x_151                                             1 	(obj:23)
t_x_157                                             1 	(obj:13)
t_x_163                                             1 	(obj:9)
t_x_166                                             1 	(obj:27)
t_x_179                                             1 	(obj:8)
t_x_180                                             1 	(obj:9)
t_x_185                                             1 	(obj:15)
t_x_190                                             1 	(obj:31)
t_x_199                                             1 	(obj:19)
t_x_200                                             1 	(obj:30)
t_x_204                                             1 	(obj:13)
t_x_206                                             1 	(obj:3)
t_x_213                                             1 	(obj:2)
t_x_216                                             1 	(obj:29)
t_x_218                                             1 	(obj:2)
t_x_223                                             1 	(obj:44)
t_x_230                                             1 	(obj:3)
t_x_233                                             1 	(obj:9)
t_x_242                                             1 	(obj:2)
t_x_245                                             1 	(obj:7)
t_x_246                                             1 	(obj:7)
t_x_249                                             1 	(obj:3)
t_x_250                                             1 	(obj:0)
t_x_256                                             1 	(obj:35)
t_x_257                                             1 	(obj:9)
t_x_260                                             1 	(obj:19)
t_x_262                                             1 	(obj:21)
t_x_264                                             1 	(obj:9)
t_x_265                                             1 	(obj:10)
t_x_266                                             1 	(obj:27)
t_x_268                                             1 	(obj:4)
t_x_269                                             1 	(obj:13)
t_x_270                                             1 	(obj:79)
t_x_272                                             1 	(obj:12)
t_x_274                                             1 	(obj:10)
t_x_277                                             1 	(obj:2)
t_x_279                                             1 	(obj:18)
t_x_281                                             1 	(obj:36)
t_x_282                                             1 	(obj:73)
t_x_293                                             1 	(obj:34)
t_x_294                                             1 	(obj:1)
t_x_296                                             1 	(obj:9)
t_x_311                                             1 	(obj:38)
t_x_322                                             1 	(obj:8)
t_x_330                                             1 	(obj:46)
t_x_336                                             1 	(obj:2)
t_x_337                                             1 	(obj:27)
t_x_339                                             1 	(obj:21)
t_x_344                                             1 	(obj:29)
t_x_351                                             1 	(obj:10)
t_x_352                                             1 	(obj:0)
t_x_364                                             1 	(obj:14)
t_x_366                                             1 	(obj:1)
t_x_369                                             1 	(obj:18)
t_x_371                                             1 	(obj:9)
t_x_372                                             1 	(obj:54)
t_x_373                                             1 	(obj:9)
t_x_379                                             1 	(obj:1)
t_x_384                                             1 	(obj:27)
t_x_386                                             1 	(obj:18)
t_x_387                                             1 	(obj:12)
t_x_390                                             1 	(obj:3)
t_x_393                                             1 	(obj:21)
t_x_395                                             1 	(obj:39)
t_x_400                                             1 	(obj:13)
t_x_404                                             1 	(obj:57)
t_x_407                                             1 	(obj:18)
t_x_409                                             1 	(obj:43)
t_x_415                                             1 	(obj:20)
t_x_417                                             1 	(obj:3)
t_x_419                                             1 	(obj:4)
t_x_423                                             1 	(obj:14)
t_x_425                                             1 	(obj:14)
t_x_426                                             1 	(obj:13)
t_x_427                                             1 	(obj:5)
t_x_428                                             1 	(obj:59)
t_x_430                                             1 	(obj:10)
t_x_431                                             1 	(obj:19)
t_x_432                                             1 	(obj:3)
t_x_433                                             1 	(obj:2)
t_x_440                                             1 	(obj:20)
t_x_446                                             1 	(obj:36)
t_x_451                                             1 	(obj:5)
t_x_456                                             1 	(obj:2)
t_x_460                                             1 	(obj:4)
t_x_461                                             1 	(obj:6)
t_x_466                                             1 	(obj:4)
t_x_468                                             1 	(obj:17)
t_x_470                                             1 	(obj:12)
t_x_472                                             1 	(obj:29)
t_x_477                                             1 	(obj:5)
t_x_484                                             1 	(obj:4)
t_x_485                                             1 	(obj:44)
t_x_488                                             1 	(obj:3)
t_x_490                                             1 	(obj:25)
t_x_492                                             1 	(obj:21)
t_x_496                                             1 	(obj:7)
t_x_498                                             1 	(obj:19)
t_x_499                                             1 	(obj:22)
t_x_501                                             1 	(obj:11)
t_x_514                                             1 	(obj:33)
t_x_516                                             1 	(obj:26)
t_x_518                                             1 	(obj:23)
t_x_520                                             1 	(obj:47)
t_x_521                                             1 	(obj:12)
t_x_522                                             1 	(obj:31)
t_x_525                                             1 	(obj:15)
t_x_527                                             1 	(obj:44)
t_x_532                                             1 	(obj:14)
t_x_533                                             1 	(obj:13)
t_x_534                                             1 	(obj:0)
t_x_537                                             1 	(obj:46)
t_x_541                                             1 	(obj:6)
t_x_542                                             1 	(obj:2)
t_x_546                                             1 	(obj:14)
t_x_548                                             1 	(obj:5)
t_x_550                                             1 	(obj:3)
t_x_551                                             1 	(obj:5)
t_x_554                                             1 	(obj:7)
t_x_555                                             1 	(obj:13)
t_x_556                                             1 	(obj:29)
t_x_560                                             1 	(obj:28)
t_x_561                                             1 	(obj:1)
t_x_563                                             1 	(obj:26)
t_x_564                                             1 	(obj:2)
t_x_565                                             1 	(obj:11)
t_x_570                                             1 	(obj:27)
t_x_573                                             1 	(obj:4)
t_x_574                                             1 	(obj:21)
t_x_582                                             1 	(obj:18)
t_x_584                                             1 	(obj:37)
t_x_593                                             1 	(obj:20)
t_x_598                                             1 	(obj:13)
t_x_599                                             1 	(obj:27)
t_x_604                                             1 	(obj:20)
t_x_606                                             1 	(obj:13)
t_x_612                                             1 	(obj:17)
t_x_618                                             1 	(obj:5)
t_x_622                                             1 	(obj:14)
t_x_623                                             1 	(obj:28)
t_x_624                                             1 	(obj:6)
t_x_625                                             1 	(obj:68)
t_x_627                                             1 	(obj:60)
t_x_629                                             1 	(obj:23)
t_x_630                                             1 	(obj:16)
t_x_634                                             1 	(obj:28)
t_x_637                                             1 	(obj:22)
t_x_640                                             1 	(obj:48)
t_x_641                                             1 	(obj:9)
t_x_642                                             1 	(obj:18)
t_x_644                                             1 	(obj:1)
t_x_646                                             1 	(obj:47)
t_x_647                                             1 	(obj:36)
t_x_654                                             1 	(obj:4)
t_x_657                                             1 	(obj:1)
t_x_658                                             1 	(obj:40)
t_x_659                                             1 	(obj:38)
t_x_663                                             1 	(obj:14)
t_x_665                                             1 	(obj:19)
t_x_667                                             1 	(obj:7)
t_x_671                                             1 	(obj:2)
t_x_673                                             1 	(obj:45)
t_x_675                                             1 	(obj:37)
t_x_677                                             1 	(obj:50)
t_x_679                                             1 	(obj:1)
t_x_688                                             1 	(obj:1)
t_x_692                                             1 	(obj:9)
t_x_694                                             1 	(obj:26)
t_x_698                                             1 	(obj:32)
t_x_706                                             1 	(obj:31)
t_x_709                                             1 	(obj:30)
t_x_710                                             1 	(obj:41)
t_x_717                                             1 	(obj:18)
t_x_718                                             1 	(obj:10)
t_x_719                                             1 	(obj:25)
t_x_721                                             1 	(obj:3)
t_x_722                                             1 	(obj:2)
t_x_732                                             1 	(obj:7)
t_x_738                                             1 	(obj:6)
t_x_739                                             1 	(obj:18)
t_x_742                                             1 	(obj:30)
t_x_745                                             1 	(obj:23)
t_x_746                                             1 	(obj:33)
t_x_747                                             1 	(obj:19)
t_x_755                                             1 	(obj:10)
t_x_759                                             1 	(obj:11)
t_x_761                                             1 	(obj:10)
t_x_763                                             1 	(obj:5)
t_x_767                                             1 	(obj:2)
t_x_769                                             1 	(obj:23)
t_x_770                                             1 	(obj:11)
t_x_771                                             1 	(obj:13)
t_x_773                                             1 	(obj:6)
t_x_778                                             1 	(obj:38)
t_x_781                                             1 	(obj:17)
t_x_785                                             1 	(obj:6)
t_x_793                                             1 	(obj:26)
t_x_800                                             1 	(obj:5)
t_x_808                                             1 	(obj:24)
t_x_810                                             1 	(obj:20)
t_x_816                                             1 	(obj:7)
t_x_826                                             1 	(obj:23)
t_x_830                                             1 	(obj:9)
t_x_832                                             1 	(obj:17)
t_x_835                                             1 	(obj:5)
t_x_838                                             1 	(obj:16)
t_x_839                                             1 	(obj:47)
t_x_840                                             1 	(obj:6)
t_x_841                                             1 	(obj:4)
t_x_842                                             1 	(obj:11)
t_x_844                                             1 	(obj:31)
t_x_855                                             1 	(obj:7)
t_x_862                                             1 	(obj:2)
t_x_863                                             1 	(obj:5)
t_x_864                                             1 	(obj:7)
t_x_865                                             1 	(obj:36)
t_x_866                                             1 	(obj:19)
t_x_868                                             1 	(obj:13)
t_x_874                                             1 	(obj:12)
t_x_877                                             1 	(obj:12)
t_x_878                                             1 	(obj:16)
t_x_880                                             1 	(obj:2)
t_x_883                                             1 	(obj:15)
t_x_888                                             1 	(obj:3)
t_x_892                                             1 	(obj:9)
t_x_900                                             1 	(obj:13)
t_x_901                                             1 	(obj:7)
t_x_903                                             1 	(obj:14)
t_x_911                                             1 	(obj:41)
t_x_912                                             1 	(obj:10)
t_x_918                                             1 	(obj:18)
t_x_922                                             1 	(obj:2)
t_x_926                                             1 	(obj:13)
t_x_930                                             1 	(obj:4)
t_x_943                                             1 	(obj:10)
t_x_947                                             1 	(obj:27)
t_x_949                                             1 	(obj:16)
t_x_959                                             1 	(obj:31)
t_x_961                                             1 	(obj:49)
t_x_962                                             1 	(obj:7)
t_x_966                                             1 	(obj:33)
t_x_968                                             1 	(obj:19)
t_x_972                                             1 	(obj:32)
t_x_973                                             1 	(obj:0)
t_x_976                                             1 	(obj:35)
t_x_979                                             1 	(obj:14)
t_x_980                                             1 	(obj:74)
t_x_981                                             1 	(obj:60)
t_x_982                                             1 	(obj:13)
t_x_985                                             1 	(obj:24)
t_x_986                                             1 	(obj:18)
t_x_989                                             1 	(obj:63)
t_x_1000                                            1 	(obj:9)
t_x_1003                                            1 	(obj:2)
t_x_1007                                            1 	(obj:4)
t_x_1008                                            1 	(obj:17)
t_x_1009                                            1 	(obj:0)
t_x_1010                                            1 	(obj:5)
t_x_1012                                            1 	(obj:1)
t_x_1014                                            1 	(obj:5)
t_x_1015                                            1 	(obj:34)
t_x_1018                                            1 	(obj:32)
t_x_1026                                            1 	(obj:5)
t_x_1029                                            1 	(obj:11)
t_x_1030                                            1 	(obj:26)
t_x_1031                                            1 	(obj:0)
t_x_1032                                            1 	(obj:13)
t_x_1033                                            1 	(obj:17)
t_x_1041                                            1 	(obj:7)
t_x_1047                                            1 	(obj:5)
t_x_1049                                            1 	(obj:6)
t_x_1055                                            1 	(obj:27)
t_x_1057                                            1 	(obj:20)
t_x_1061                                            1 	(obj:28)
t_x_1067                                            1 	(obj:62)
t_x_1073                                            1 	(obj:0)
t_x_1084                                            1 	(obj:24)
t_x_1085                                            1 	(obj:20)
t_x_1087                                            1 	(obj:4)
t_x_1088                                            1 	(obj:19)
t_x_1095                                            1 	(obj:11)
t_x_1098                                            1 	(obj:4)
t_x_1100                                            1 	(obj:42)
t_x_1101                                            1 	(obj:13)
t_x_1102                                            1 	(obj:12)
t_x_1108                                            1 	(obj:8)
t_x_1111                                            1 	(obj:11)
t_x_1116                                            1 	(obj:23)
t_x_1120                                            1 	(obj:6)
t_x_1126                                            1 	(obj:6)
t_x_1129                                            1 	(obj:28)
t_x_1133                                            1 	(obj:47)
t_x_1135                                            1 	(obj:21)
t_x_1141                                            1 	(obj:56)
t_x_1143                                            1 	(obj:25)
t_x_1144                                            1 	(obj:6)
t_x_1149                                            1 	(obj:65)
t_x_1150                                            1 	(obj:29)
t_x_1151                                            1 	(obj:2)
t_x_1153                                            1 	(obj:15)
t_x_1158                                            1 	(obj:47)
t_x_1160                                            1 	(obj:22)
t_x_1161                                            1 	(obj:21)
t_x_1163                                            1 	(obj:35)
t_x_1164                                            1 	(obj:40)
t_x_1172                                            1 	(obj:54)
t_x_1176                                            1 	(obj:28)
t_x_1181                                            1 	(obj:19)
t_x_1184                                            1 	(obj:29)
t_x_1186                                            1 	(obj:46)
t_x_1187                                            1 	(obj:7)
t_x_1188                                            1 	(obj:10)
t_x_1190                                            1 	(obj:49)
t_x_1196                                            1 	(obj:63)
t_x_1206                                            1 	(obj:11)
t_x_1207                                            1 	(obj:33)
t_x_1216                                            1 	(obj:23)
t_x_1218                                            1 	(obj:15)
t_x_1220                                            1 	(obj:40)
t_x_1222                                            1 	(obj:5)
t_x_1226                                            1 	(obj:10)
t_x_1229                                            1 	(obj:36)
t_x_1240                                            1 	(obj:27)
t_x_1244                                            1 	(obj:6)
t_x_1251                                            1 	(obj:5)
t_x_1254                                            1 	(obj:27)
t_x_1259                                            1 	(obj:13)
t_x_1260                                            1 	(obj:2)
t_x_1266                                            1 	(obj:15)
t_x_1269                                            1 	(obj:0)
t_x_1271                                            1 	(obj:29)
t_x_1272                                            1 	(obj:7)
t_x_1273                                            1 	(obj:26)
t_x_1275                                            1 	(obj:8)
t_x_1281                                            1 	(obj:1)
t_x_1282                                            1 	(obj:20)
t_x_1287                                            1 	(obj:6)
t_x_1295                                            1 	(obj:11)
t_x_1296                                            1 	(obj:20)
t_x_1300                                            1 	(obj:2)
t_x_1301                                            1 	(obj:17)
t_x_1305                                            1 	(obj:5)
t_x_1306                                            1 	(obj:1)
t_x_1307                                            1 	(obj:52)
t_x_1313                                            1 	(obj:6)
t_x_1320                                            1 	(obj:26)
t_x_1324                                            1 	(obj:11)
t_x_1326                                            1 	(obj:8)
t_x_1330                                            1 	(obj:1)
t_x_1332                                            1 	(obj:12)
t_x_1335                                            1 	(obj:22)
t_x_1337                                            1 	(obj:48)
t_x_1341                                            1 	(obj:8)
t_x_1351                                            1 	(obj:7)
t_x_1354                                            1 	(obj:4)
t_x_1357                                            1 	(obj:51)
t_x_1362                                            1 	(obj:4)
t_x_1367                                            1 	(obj:29)
t_x_1369                                            1 	(obj:26)
t_x_1373                                            1 	(obj:0)
t_x_1375                                            1 	(obj:21)
t_x_1378                                            1 	(obj:4)
t_x_1379                                            1 	(obj:7)
t_x_1380                                            1 	(obj:3)
t_x_1388                                            1 	(obj:25)
t_x_1389                                            1 	(obj:5)
t_x_1390                                            1 	(obj:2)
t_x_1397                                            1 	(obj:17)
t_x_1400                                            1 	(obj:3)
t_x_1401                                            1 	(obj:17)
t_x_1402                                            1 	(obj:33)
t_x_1411                                            1 	(obj:2)
t_x_1413                                            1 	(obj:31)
t_x_1418                                            1 	(obj:7)
t_x_1422                                            1 	(obj:28)
t_x_1429                                            1 	(obj:17)
t_x_1433                                            1 	(obj:15)
t_x_1444                                            1 	(obj:3)
t_x_1445                                            1 	(obj:17)
t_x_1451                                            1 	(obj:32)
t_x_1453                                            1 	(obj:9)
t_x_1454                                            1 	(obj:7)
t_x_1456                                            1 	(obj:9)
t_x_1458                                            1 	(obj:21)
t_x_1462                                            1 	(obj:13)
t_x_1464                                            1 	(obj:28)
t_x_1465                                            1 	(obj:2)
t_x_1469                                            1 	(obj:33)
t_x_1470                                            1 	(obj:51)
t_x_1475                                            1 	(obj:20)
t_x_1480                                            1 	(obj:17)
t_x_1483                                            1 	(obj:3)
t_x_1484                                            1 	(obj:18)
t_x_1490                                            1 	(obj:0)
t_x_1498                                            1 	(obj:7)
t_x_1505                                            1 	(obj:11)
t_x_1508                                            1 	(obj:17)
t_x_1510                                            1 	(obj:6)
t_x_1512                                            1 	(obj:3)
t_x_1515                                            1 	(obj:1)
t_x_1526                                            1 	(obj:0)
t_x_1529                                            1 	(obj:17)
t_x_1541                                            1 	(obj:14)
t_x_1542                                            1 	(obj:11)
t_x_1544                                            1 	(obj:14)
t_x_1546                                            1 	(obj:16)
t_x_1549                                            1 	(obj:16)
t_x_1550                                            1 	(obj:26)
t_x_1552                                            1 	(obj:22)
t_x_1555                                            1 	(obj:9)
t_x_1560                                            1 	(obj:42)
t_x_1569                                            1 	(obj:13)
t_x_1571                                            1 	(obj:14)
t_x_1574                                            1 	(obj:13)
t_x_1575                                            1 	(obj:5)
t_x_1578                                            1 	(obj:35)
t_x_1579                                            1 	(obj:1)
t_x_1583                                            1 	(obj:23)
t_x_1584                                            1 	(obj:4)
t_x_1585                                            1 	(obj:26)
t_x_1588                                            1 	(obj:21)
t_x_1589                                            1 	(obj:14)
t_x_1591                                            1 	(obj:12)
t_x_1592                                            1 	(obj:4)
t_x_1601                                            1 	(obj:39)
t_x_1603                                            1 	(obj:5)
t_x_1606                                            1 	(obj:12)
t_x_1609                                            1 	(obj:15)
t_x_1613                                            1 	(obj:0)
t_x_1617                                            1 	(obj:16)
t_x_1619                                            1 	(obj:14)
t_x_1621                                            1 	(obj:11)
t_x_1624                                            1 	(obj:3)
t_x_1626                                            1 	(obj:13)
t_x_1628                                            1 	(obj:2)
t_x_1631                                            1 	(obj:33)
t_x_1637                                            1 	(obj:14)
t_x_1643                                            1 	(obj:8)
t_x_1646                                            1 	(obj:12)
t_x_1651                                            1 	(obj:21)
t_x_1653                                            1 	(obj:23)
t_x_1654                                            1 	(obj:15)
t_x_1659                                            1 	(obj:2)
t_x_1661                                            1 	(obj:31)
t_x_1662                                            1 	(obj:0)
t_x_1663                                            1 	(obj:11)
t_x_1669                                            1 	(obj:15)
t_x_1670                                            1 	(obj:3)
t_x_1682                                            1 	(obj:15)
t_x_1684                                            1 	(obj:60)
t_x_1688                                            1 	(obj:3)
t_x_1689                                            1 	(obj:13)
t_x_1691                                            1 	(obj:2)
t_x_1694                                            1 	(obj:5)
t_x_1697                                            1 	(obj:33)
t_x_1698                                            1 	(obj:33)
t_x_1701                                            1 	(obj:8)
t_x_1703                                            1 	(obj:0)
t_x_1706                                            1 	(obj:9)
t_x_1714                                            1 	(obj:12)
t_x_1715                                            1 	(obj:9)
t_x_1716                                            1 	(obj:33)
t_x_1724                                            1 	(obj:10)
t_x_1727                                            1 	(obj:5)
t_x_1729                                            1 	(obj:6)
t_x_1730                                            1 	(obj:36)
t_x_1731                                            1 	(obj:6)
t_x_1732                                            1 	(obj:40)
t_x_1734                                            1 	(obj:21)
t_x_1735                                            1 	(obj:6)
t_x_1741                                            1 	(obj:9)
t_x_1746                                            1 	(obj:3)
t_x_1748                                            1 	(obj:10)
t_x_1749                                            1 	(obj:15)
t_x_1752                                            1 	(obj:0)
t_x_1755                                            1 	(obj:2)
t_x_1756                                            1 	(obj:2)
t_x_1758                                            1 	(obj:1)
t_x_1760                                            1 	(obj:7)
t_x_1762                                            1 	(obj:3)
t_x_1770                                            1 	(obj:36)
t_x_1771                                            1 	(obj:15)
t_x_1773                                            1 	(obj:19)
t_x_1775                                            1 	(obj:17)
t_x_1776                                            1 	(obj:13)
t_x_1787                                            1 	(obj:37)
t_x_1792                                            1 	(obj:33)
t_x_1793                                            1 	(obj:34)
t_x_1794                                            1 	(obj:1)
t_x_1795                                            1 	(obj:1)
t_x_1799                                            1 	(obj:39)
t_x_1803                                            1 	(obj:2)
t_x_1804                                            1 	(obj:16)
t_x_1810                                            1 	(obj:8)
t_x_1814                                            1 	(obj:16)
t_x_1815                                            1 	(obj:25)
t_x_1820                                            1 	(obj:2)
t_x_1822                                            1 	(obj:15)
t_x_1823                                            1 	(obj:4)
t_x_1824                                            1 	(obj:54)
t_x_1827                                            1 	(obj:20)
t_x_1836                                            1 	(obj:9)
t_x_1840                                            1 	(obj:35)
t_x_1843                                            1 	(obj:2)
t_x_1845                                            1 	(obj:18)
t_x_1847                                            1 	(obj:0)
t_x_1853                                            1 	(obj:46)
t_x_1855                                            1 	(obj:10)
t_x_1857                                            1 	(obj:13)
t_x_1860                                            1 	(obj:10)
t_x_1862                                            1 	(obj:3)
t_x_1870                                            1 	(obj:42)
t_x_1872                                            1 	(obj:4)
t_x_1874                                            1 	(obj:21)
t_x_1875                                            1 	(obj:10)
t_x_1877                                            1 	(obj:21)
t_x_1878                                            1 	(obj:4)
t_x_1885                                            1 	(obj:9)
t_x_1886                                            1 	(obj:19)
t_x_1887                                            1 	(obj:0)
t_x_1889                                            1 	(obj:4)
t_x_1896                                            1 	(obj:4)
t_x_1901                                            1 	(obj:5)
t_x_1903                                            1 	(obj:2)
t_x_1908                                            1 	(obj:5)
t_x_1911                                            1 	(obj:10)
t_x_1916                                            1 	(obj:6)
t_x_1925                                            1 	(obj:36)
t_x_1926                                            1 	(obj:1)
t_x_1928                                            1 	(obj:3)
t_x_1931                                            1 	(obj:42)
t_x_1937                                            1 	(obj:4)
t_x_1939                                            1 	(obj:28)
t_x_1943                                            1 	(obj:49)
t_x_1951                                            1 	(obj:27)
t_x_1954                                            1 	(obj:15)
t_x_1958                                            1 	(obj:24)
t_x_1961                                            1 	(obj:21)
t_x_1970                                            1 	(obj:21)
t_x_1971                                            1 	(obj:17)
t_x_1972                                            1 	(obj:38)
t_x_1975                                            1 	(obj:1)
t_x_1979                                            1 	(obj:4)
t_x_1981                                            1 	(obj:33)
t_x_1982                                            1 	(obj:3)
t_x_1983                                            1 	(obj:27)
t_x_1984                                            1 	(obj:6)
t_x_1991                                            1 	(obj:42)
t_x_1992                                            1 	(obj:40)
t_x_1993                                            1 	(obj:15)
t_x_1994                                            1 	(obj:6)
t_x_1995                                            1 	(obj:13)
t_x_1996                                            1 	(obj:25)
t_x_1997                                            1 	(obj:0)
